WARNING: for repeatability, setting FPU to use double precision
============================[ Problem Statistics ]=============================
|                                                                             |
|  Number of variables:           100                                         |
|  Number of clauses:             449                                         |
|  Parse time:                   0.00 s                                       |
|  Eliminated clauses:           0.00 Mb                                      |
|  Simplification time:          0.00 s                                       |
|                                                                             |
============================[ Search Statistics ]==============================
| Conflicts |          ORIGINAL         |          LEARNT          | Progress |
|           |    Vars  Clauses Literals |    Limit  Clauses Lit/Cl |          |
===============================================================================
|       100 |      98      443     1334 |      162      100      6 |  0.010 % |
===============================================================================
restarts              : 3
conflicts             : 238            (71151 /sec)
decisions             : 310            (0.00 % random) (92676 /sec)
propagations          : 5621           (1680419 /sec)
conflict literals     : 1489           (19.95 % deleted)
Memory used           : 13.00 MB
CPU time              : 0.003345 s

SATISFIABLE
